20	5
0	9	3	5	9	4	8	2	6	7	1
1	5	18	20	16	12	14
2	5	18	12	16	20	14
3	5	18	16	17	20	19
4	4	16	13	14	12
5	5	16	19	20	11	18
6	4	20	16	18	19
7	4	19	18	17	16
8	3	10	20	18
9	3	12	14	16
10	1	14
11	1	17
12	2	19	15
13	4	20	15	18	19
14	2	19	11
15	1	11
16	1	21
17	1	21
18	1	21
19	1	21
20	1	21
21	0
0	0	0	0	0	0	0
1	2	0	0	2	0	0
2	9	0	0	2	1	0
3	1	2	0	0	4	0
4	3	0	3	3	5	4
5	2	3	1	3	5	2
6	10	4	0	0	0	0
7	4	0	3	1	0	2
8	9	0	4	5	2	1
9	8	2	0	0	0	4
10	5	5	0	4	2	1
11	1	0	0	0	0	1
12	10	0	0	5	5	0
13	2	4	0	0	3	3
14	1	0	0	0	3	0
15	1	0	0	2	1	1
16	3	0	3	0	0	0
17	8	0	0	0	0	5
18	4	4	2	5	2	2
19	6	1	1	1	0	3
20	5	0	0	4	0	0
21	0	0	0	0	0	0
5	5	6	6	6
